open_stacks/gp50by50_1.sol
objective = 45;
s = [2, 39, 4, 7, 10, 11, 13, 18, 21, 25, 31, 33, 34, 35, 36, 40, 42, 43, 44, 46, 49, 1, 3, 6, 12, 14, 16, 17, 19, 23, 24, 26, 27, 28, 30, 37, 41, 47, 48, 50, 5, 9, 15, 20, 32, 8, 29, 38, 22, 45];
